(declare-fun mem_c0000f92_181_112 () (_ BitVec 112))
(declare-fun mem_c0000f90_44_16 () (_ BitVec 16))
(declare-fun args_0_8 () (_ BitVec 8))
(declare-fun strlen_43_64 () (_ BitVec 64))
(declare-fun strlen_705_64 () (_ BitVec 64))
(declare-fun strlen_312_64 () (_ BitVec 64))
(declare-fun strlen_289_64 () (_ BitVec 64))
(declare-fun mem_c0000fc2_184_496 () (_ BitVec 496))
(declare-fun mem_c0000fc0_118_16 () (_ BitVec 16))
(declare-fun strlen_108_64 () (_ BitVec 64))
(declare-fun args_3_8 () (_ BitVec 8))
(declare-fun mem_c0000fb2_183_112 () (_ BitVec 112))
(declare-fun mem_c0000fb0_82_16 () (_ BitVec 16))
(declare-fun strlen_73_64 () (_ BitVec 64))
(declare-fun args_2_8 () (_ BitVec 8))
(declare-fun mem_c0000fa2_182_112 () (_ BitVec 112))
(declare-fun mem_c0000fa0_55_16 () (_ BitVec 16))
(declare-fun strlen_50_64 () (_ BitVec 64))
(declare-fun args_1_8 () (_ BitVec 8))
(assert (let ((a!1 (ite (or (= #x0000000000000001 strlen_43_64)
                    (= #x0000000000000000 strlen_43_64))
                args_0_8
                ((_ extract 15 8) mem_c0000f90_44_16)))
      (a!2 (concat #x000000000000
                   (ite (= #x00 ((_ extract 7 0) mem_c0000f92_181_112)) #b1 #b0)))
      (a!16 (ite (or (= #x0000000000000001 strlen_43_64)
                     (= #x00 ((_ extract 7 0) mem_c0000f90_44_16)))
                 #b1
                 #b0))
      (a!18 (concat (ite (= #x00 ((_ extract 7 0) mem_c0000f92_181_112))
                         #b1
                         #b0)
                    (ite (= #x00 ((_ extract 15 8) mem_c0000f92_181_112))
                         #b1
                         #b0)))
      (a!33 (concat (ite (= #x00 ((_ extract 15 8) mem_c0000f92_181_112))
                         #b1
                         #b0)
                    (ite (= #x00 ((_ extract 23 16) mem_c0000f92_181_112))
                         #b1
                         #b0)))
      (a!48 (concat (ite (= #x00 ((_ extract 23 16) mem_c0000f92_181_112))
                         #b1
                         #b0)
                    (ite (= #x00 ((_ extract 31 24) mem_c0000f92_181_112))
                         #b1
                         #b0)))
      (a!61 (concat (ite (= #x00 ((_ extract 31 24) mem_c0000f92_181_112))
                         #b1
                         #b0)
                    (ite (= #x00 ((_ extract 39 32) mem_c0000f92_181_112))
                         #b1
                         #b0)))
      (a!73 (concat (ite (= #x00 ((_ extract 39 32) mem_c0000f92_181_112))
                         #b1
                         #b0)
                    (ite (= #x00 ((_ extract 47 40) mem_c0000f92_181_112))
                         #b1
                         #b0)))
      (a!85 (concat (ite (= #x00 ((_ extract 47 40) mem_c0000f92_181_112))
                         #b1
                         #b0)
                    (ite (= #x00 ((_ extract 55 48) mem_c0000f92_181_112))
                         #b1
                         #b0)))
      (a!95 (concat (ite (= #x00 ((_ extract 55 48) mem_c0000f92_181_112))
                         #b1
                         #b0)
                    (ite (= #x00 ((_ extract 63 56) mem_c0000f92_181_112))
                         #b1
                         #b0)))
      (a!104 (concat (ite (= #x00 ((_ extract 63 56) mem_c0000f92_181_112))
                          #b1
                          #b0)
                     (ite (= #x00 ((_ extract 71 64) mem_c0000f92_181_112))
                          #b1
                          #b0)))
      (a!113 (concat (ite (= #x00 ((_ extract 71 64) mem_c0000f92_181_112))
                          #b1
                          #b0)
                     (ite (= #x00 ((_ extract 79 72) mem_c0000f92_181_112))
                          #b1
                          #b0)))
      (a!120 (concat (ite (= #x00 ((_ extract 79 72) mem_c0000f92_181_112))
                          #b1
                          #b0)
                     (ite (= #x00 ((_ extract 87 80) mem_c0000f92_181_112))
                          #b1
                          #b0)))
      (a!126 (concat (ite (= #x00 ((_ extract 87 80) mem_c0000f92_181_112))
                          #b1
                          #b0)
                     (ite (= #x00 ((_ extract 95 88) mem_c0000f92_181_112))
                          #b1
                          #b0)))
      (a!132 (concat (ite (= #x00 ((_ extract 95 88) mem_c0000f92_181_112))
                          #b1
                          #b0)
                     (ite (= #x00 ((_ extract 103 96) mem_c0000f92_181_112))
                          #b1
                          #b0)))
      (a!136 (concat (ite (= #x00 ((_ extract 103 96) mem_c0000f92_181_112))
                          #b1
                          #b0)
                     (ite (= #x00 ((_ extract 111 104) mem_c0000f92_181_112))
                          #b1
                          #b0)))
      (a!146 (concat #xffffffffffff
                     (ite (= #x2f ((_ extract 7 0) mem_c0000f92_181_112))
                          #b0
                          #b1)))
      (a!160 (ite (and (= #x2f ((_ extract 7 0) mem_c0000f90_44_16))
                       (not (= #x0000000000000001 strlen_43_64)))
                  #b0
                  #b1))
      (a!162 (ite (or (= #x0000000000000001 strlen_50_64)
                      (= #x0000000000000000 strlen_50_64))
                  args_1_8
                  ((_ extract 15 8) mem_c0000fa0_55_16)))
      (a!163 (= #x00
                (ite (or (= #x0000000000000001 strlen_73_64)
                         (= #x0000000000000000 strlen_73_64))
                     args_2_8
                     ((_ extract 15 8) mem_c0000fb0_82_16))))
      (a!164 (= #x00
                (ite (or (= #x0000000000000001 strlen_108_64)
                         (= #x0000000000000000 strlen_108_64))
                     args_3_8
                     ((_ extract 15 8) mem_c0000fc0_118_16))))
      (a!165 (ite (= #x00 ((_ extract 431 424) mem_c0000fc2_184_496))
                  #x00000000c0000fca
                  (ite (= #x00 ((_ extract 423 416) mem_c0000fc2_184_496))
                       #x00000000c0000fcb
                       #x0000000000000000))))
(let ((a!3 (concat a!2
                   (ite (= #x00 ((_ extract 15 8) mem_c0000f92_181_112))
                        #b1
                        #b0)))
      (a!19 (concat a!18
                    (ite (= #x00 ((_ extract 23 16) mem_c0000f92_181_112))
                         #b1
                         #b0)))
      (a!34 (concat a!33
                    (ite (= #x00 ((_ extract 31 24) mem_c0000f92_181_112))
                         #b1
                         #b0)))
      (a!49 (concat a!48
                    (ite (= #x00 ((_ extract 39 32) mem_c0000f92_181_112))
                         #b1
                         #b0)))
      (a!62 (concat a!61
                    (ite (= #x00 ((_ extract 47 40) mem_c0000f92_181_112))
                         #b1
                         #b0)))
      (a!74 (concat a!73
                    (ite (= #x00 ((_ extract 55 48) mem_c0000f92_181_112))
                         #b1
                         #b0)))
      (a!86 (concat a!85
                    (ite (= #x00 ((_ extract 63 56) mem_c0000f92_181_112))
                         #b1
                         #b0)))
      (a!96 (concat a!95
                    (ite (= #x00 ((_ extract 71 64) mem_c0000f92_181_112))
                         #b1
                         #b0)))
      (a!105 (concat a!104
                     (ite (= #x00 ((_ extract 79 72) mem_c0000f92_181_112))
                          #b1
                          #b0)))
      (a!114 (concat a!113
                     (ite (= #x00 ((_ extract 87 80) mem_c0000f92_181_112))
                          #b1
                          #b0)))
      (a!121 (concat a!120
                     (ite (= #x00 ((_ extract 95 88) mem_c0000f92_181_112))
                          #b1
                          #b0)))
      (a!127 (concat a!126
                     (ite (= #x00 ((_ extract 103 96) mem_c0000f92_181_112))
                          #b1
                          #b0)))
      (a!133 (concat a!132
                     (ite (= #x00 ((_ extract 111 104) mem_c0000f92_181_112))
                          #b1
                          #b0)))
      (a!137 (bvadd #xf (concat (concat a!136 a!16) (ite (= #x00 a!1) #b1 #b0))))
      (a!139 (concat (ite (= #x00 ((_ extract 111 104) mem_c0000f92_181_112))
                          #b1
                          #b0)
                     a!16))
      (a!143 (bvadd #b11 (concat a!16 (ite (= #x00 a!1) #b1 #b0))))
      (a!145 (bvxor (bvadd #b1 (ite (= #x00 a!1) #b1 #b0))
                    (ite (= #x00 a!1) #b1 #b0)))
      (a!147 (concat a!146
                     (ite (= #x2f ((_ extract 15 8) mem_c0000f92_181_112))
                          #b0
                          #b1)))
      (a!166 (ite (= #x00 ((_ extract 447 440) mem_c0000fc2_184_496))
                  #x00000000c0000fc8
                  (ite (= #x00 ((_ extract 439 432) mem_c0000fc2_184_496))
                       #x00000000c0000fc9
                       a!165))))
(let ((a!4 (concat a!3
                   (ite (= #x00 ((_ extract 23 16) mem_c0000f92_181_112))
                        #b1
                        #b0)))
      (a!20 (concat a!19
                    (ite (= #x00 ((_ extract 31 24) mem_c0000f92_181_112))
                         #b1
                         #b0)))
      (a!35 (concat a!34
                    (ite (= #x00 ((_ extract 39 32) mem_c0000f92_181_112))
                         #b1
                         #b0)))
      (a!50 (concat a!49
                    (ite (= #x00 ((_ extract 47 40) mem_c0000f92_181_112))
                         #b1
                         #b0)))
      (a!63 (concat a!62
                    (ite (= #x00 ((_ extract 55 48) mem_c0000f92_181_112))
                         #b1
                         #b0)))
      (a!75 (concat a!74
                    (ite (= #x00 ((_ extract 63 56) mem_c0000f92_181_112))
                         #b1
                         #b0)))
      (a!87 (concat a!86
                    (ite (= #x00 ((_ extract 71 64) mem_c0000f92_181_112))
                         #b1
                         #b0)))
      (a!97 (concat a!96
                    (ite (= #x00 ((_ extract 79 72) mem_c0000f92_181_112))
                         #b1
                         #b0)))
      (a!106 (concat a!105
                     (ite (= #x00 ((_ extract 87 80) mem_c0000f92_181_112))
                          #b1
                          #b0)))
      (a!115 (concat a!114
                     (ite (= #x00 ((_ extract 95 88) mem_c0000f92_181_112))
                          #b1
                          #b0)))
      (a!122 (concat a!121
                     (ite (= #x00 ((_ extract 103 96) mem_c0000f92_181_112))
                          #b1
                          #b0)))
      (a!128 (concat a!127
                     (ite (= #x00 ((_ extract 111 104) mem_c0000f92_181_112))
                          #b1
                          #b0)))
      (a!134 (bvadd #b11111
                    (concat (concat a!133 a!16) (ite (= #x00 a!1) #b1 #b0))))
      (a!138 (bvxor ((_ extract 3 3) a!137)
                    (ite (= #x00 ((_ extract 103 96) mem_c0000f92_181_112))
                         #b1
                         #b0)))
      (a!140 (bvadd #b111 (concat a!139 (ite (= #x00 a!1) #b1 #b0))))
      (a!148 (concat a!147
                     (ite (= #x2f ((_ extract 23 16) mem_c0000f92_181_112))
                          #b0
                          #b1)))
      (a!167 (ite (= #x00 ((_ extract 463 456) mem_c0000fc2_184_496))
                  #x00000000c0000fc6
                  (ite (= #x00 ((_ extract 455 448) mem_c0000fc2_184_496))
                       #x00000000c0000fc7
                       a!166))))
(let ((a!5 (concat a!4
                   (ite (= #x00 ((_ extract 31 24) mem_c0000f92_181_112))
                        #b1
                        #b0)))
      (a!21 (concat a!20
                    (ite (= #x00 ((_ extract 39 32) mem_c0000f92_181_112))
                         #b1
                         #b0)))
      (a!36 (concat a!35
                    (ite (= #x00 ((_ extract 47 40) mem_c0000f92_181_112))
                         #b1
                         #b0)))
      (a!51 (concat a!50
                    (ite (= #x00 ((_ extract 55 48) mem_c0000f92_181_112))
                         #b1
                         #b0)))
      (a!64 (concat a!63
                    (ite (= #x00 ((_ extract 63 56) mem_c0000f92_181_112))
                         #b1
                         #b0)))
      (a!76 (concat a!75
                    (ite (= #x00 ((_ extract 71 64) mem_c0000f92_181_112))
                         #b1
                         #b0)))
      (a!88 (concat a!87
                    (ite (= #x00 ((_ extract 79 72) mem_c0000f92_181_112))
                         #b1
                         #b0)))
      (a!98 (concat a!97
                    (ite (= #x00 ((_ extract 87 80) mem_c0000f92_181_112))
                         #b1
                         #b0)))
      (a!107 (concat a!106
                     (ite (= #x00 ((_ extract 95 88) mem_c0000f92_181_112))
                          #b1
                          #b0)))
      (a!116 (concat a!115
                     (ite (= #x00 ((_ extract 103 96) mem_c0000f92_181_112))
                          #b1
                          #b0)))
      (a!123 (concat a!122
                     (ite (= #x00 ((_ extract 111 104) mem_c0000f92_181_112))
                          #b1
                          #b0)))
      (a!129 (bvadd #b111111
                    (concat (concat a!128 a!16) (ite (= #x00 a!1) #b1 #b0))))
      (a!135 (bvxor ((_ extract 4 4) a!134)
                    (ite (= #x00 ((_ extract 95 88) mem_c0000f92_181_112))
                         #b1
                         #b0)))
      (a!141 (bvxor ((_ extract 2 2) a!140)
                    (ite (= #x00 ((_ extract 111 104) mem_c0000f92_181_112))
                         #b1
                         #b0)))
      (a!149 (concat a!148
                     (ite (= #x2f ((_ extract 31 24) mem_c0000f92_181_112))
                          #b0
                          #b1)))
      (a!168 (ite (= #x00 ((_ extract 479 472) mem_c0000fc2_184_496))
                  #x00000000c0000fc4
                  (ite (= #x00 ((_ extract 471 464) mem_c0000fc2_184_496))
                       #x00000000c0000fc5
                       a!167))))
(let ((a!6 (concat a!5
                   (ite (= #x00 ((_ extract 39 32) mem_c0000f92_181_112))
                        #b1
                        #b0)))
      (a!22 (concat a!21
                    (ite (= #x00 ((_ extract 47 40) mem_c0000f92_181_112))
                         #b1
                         #b0)))
      (a!37 (concat a!36
                    (ite (= #x00 ((_ extract 55 48) mem_c0000f92_181_112))
                         #b1
                         #b0)))
      (a!52 (concat a!51
                    (ite (= #x00 ((_ extract 63 56) mem_c0000f92_181_112))
                         #b1
                         #b0)))
      (a!65 (concat a!64
                    (ite (= #x00 ((_ extract 71 64) mem_c0000f92_181_112))
                         #b1
                         #b0)))
      (a!77 (concat a!76
                    (ite (= #x00 ((_ extract 79 72) mem_c0000f92_181_112))
                         #b1
                         #b0)))
      (a!89 (concat a!88
                    (ite (= #x00 ((_ extract 87 80) mem_c0000f92_181_112))
                         #b1
                         #b0)))
      (a!99 (concat a!98
                    (ite (= #x00 ((_ extract 95 88) mem_c0000f92_181_112))
                         #b1
                         #b0)))
      (a!108 (concat a!107
                     (ite (= #x00 ((_ extract 103 96) mem_c0000f92_181_112))
                          #b1
                          #b0)))
      (a!117 (concat a!116
                     (ite (= #x00 ((_ extract 111 104) mem_c0000f92_181_112))
                          #b1
                          #b0)))
      (a!124 (bvadd #b1111111
                    (concat (concat a!123 a!16) (ite (= #x00 a!1) #b1 #b0))))
      (a!130 (bvxor ((_ extract 5 5) a!129)
                    (ite (= #x00 ((_ extract 87 80) mem_c0000f92_181_112))
                         #b1
                         #b0)))
      (a!150 (concat a!149
                     (ite (= #x2f ((_ extract 39 32) mem_c0000f92_181_112))
                          #b0
                          #b1)))
      (a!169 (ite (= #x00 ((_ extract 495 488) mem_c0000fc2_184_496))
                  #x00000000c0000fc2
                  (ite (= #x00 ((_ extract 487 480) mem_c0000fc2_184_496))
                       #x00000000c0000fc3
                       a!168))))
(let ((a!7 (concat a!6
                   (ite (= #x00 ((_ extract 47 40) mem_c0000f92_181_112))
                        #b1
                        #b0)))
      (a!23 (concat a!22
                    (ite (= #x00 ((_ extract 55 48) mem_c0000f92_181_112))
                         #b1
                         #b0)))
      (a!38 (concat a!37
                    (ite (= #x00 ((_ extract 63 56) mem_c0000f92_181_112))
                         #b1
                         #b0)))
      (a!53 (concat a!52
                    (ite (= #x00 ((_ extract 71 64) mem_c0000f92_181_112))
                         #b1
                         #b0)))
      (a!66 (concat a!65
                    (ite (= #x00 ((_ extract 79 72) mem_c0000f92_181_112))
                         #b1
                         #b0)))
      (a!78 (concat a!77
                    (ite (= #x00 ((_ extract 87 80) mem_c0000f92_181_112))
                         #b1
                         #b0)))
      (a!90 (concat a!89
                    (ite (= #x00 ((_ extract 95 88) mem_c0000f92_181_112))
                         #b1
                         #b0)))
      (a!100 (concat a!99
                     (ite (= #x00 ((_ extract 103 96) mem_c0000f92_181_112))
                          #b1
                          #b0)))
      (a!109 (concat a!108
                     (ite (= #x00 ((_ extract 111 104) mem_c0000f92_181_112))
                          #b1
                          #b0)))
      (a!118 (bvadd #xff
                    (concat (concat a!117 a!16) (ite (= #x00 a!1) #b1 #b0))))
      (a!125 (bvxor ((_ extract 6 6) a!124)
                    (ite (= #x00 ((_ extract 79 72) mem_c0000f92_181_112))
                         #b1
                         #b0)))
      (a!151 (concat a!150
                     (ite (= #x2f ((_ extract 47 40) mem_c0000f92_181_112))
                          #b0
                          #b1)))
      (a!170 (ite (= #x00
                     (ite (= #x0000000000000001 strlen_108_64)
                          #x00
                          ((_ extract 7 0) mem_c0000fc0_118_16)))
                  #x00000000c0000fc1
                  a!169)))
(let ((a!8 (concat a!7
                   (ite (= #x00 ((_ extract 55 48) mem_c0000f92_181_112))
                        #b1
                        #b0)))
      (a!24 (concat a!23
                    (ite (= #x00 ((_ extract 63 56) mem_c0000f92_181_112))
                         #b1
                         #b0)))
      (a!39 (concat a!38
                    (ite (= #x00 ((_ extract 71 64) mem_c0000f92_181_112))
                         #b1
                         #b0)))
      (a!54 (concat a!53
                    (ite (= #x00 ((_ extract 79 72) mem_c0000f92_181_112))
                         #b1
                         #b0)))
      (a!67 (concat a!66
                    (ite (= #x00 ((_ extract 87 80) mem_c0000f92_181_112))
                         #b1
                         #b0)))
      (a!79 (concat a!78
                    (ite (= #x00 ((_ extract 95 88) mem_c0000f92_181_112))
                         #b1
                         #b0)))
      (a!91 (concat a!90
                    (ite (= #x00 ((_ extract 103 96) mem_c0000f92_181_112))
                         #b1
                         #b0)))
      (a!101 (concat a!100
                     (ite (= #x00 ((_ extract 111 104) mem_c0000f92_181_112))
                          #b1
                          #b0)))
      (a!110 (bvadd #b111111111
                    (concat (concat a!109 a!16) (ite (= #x00 a!1) #b1 #b0))))
      (a!119 (bvxor ((_ extract 7 7) a!118)
                    (ite (= #x00 ((_ extract 71 64) mem_c0000f92_181_112))
                         #b1
                         #b0)))
      (a!152 (concat a!151
                     (ite (= #x2f ((_ extract 55 48) mem_c0000f92_181_112))
                          #b0
                          #b1)))
      (a!171 (ite (= #x00 ((_ extract 15 8) mem_c0000fb2_183_112))
                  #x00000000c0000fbe
                  (ite (= #x00 ((_ extract 7 0) mem_c0000fb2_183_112))
                       #x00000000c0000fbf
                       (ite a!164 #x00000000c0000fc0 a!170)))))
(let ((a!9 (concat a!8
                   (ite (= #x00 ((_ extract 63 56) mem_c0000f92_181_112))
                        #b1
                        #b0)))
      (a!25 (concat a!24
                    (ite (= #x00 ((_ extract 71 64) mem_c0000f92_181_112))
                         #b1
                         #b0)))
      (a!40 (concat a!39
                    (ite (= #x00 ((_ extract 79 72) mem_c0000f92_181_112))
                         #b1
                         #b0)))
      (a!55 (concat a!54
                    (ite (= #x00 ((_ extract 87 80) mem_c0000f92_181_112))
                         #b1
                         #b0)))
      (a!68 (concat a!67
                    (ite (= #x00 ((_ extract 95 88) mem_c0000f92_181_112))
                         #b1
                         #b0)))
      (a!80 (concat a!79
                    (ite (= #x00 ((_ extract 103 96) mem_c0000f92_181_112))
                         #b1
                         #b0)))
      (a!92 (concat a!91
                    (ite (= #x00 ((_ extract 111 104) mem_c0000f92_181_112))
                         #b1
                         #b0)))
      (a!102 (bvadd #b1111111111
                    (concat (concat a!101 a!16) (ite (= #x00 a!1) #b1 #b0))))
      (a!111 (bvxor ((_ extract 8 8) a!110)
                    (ite (= #x00 ((_ extract 63 56) mem_c0000f92_181_112))
                         #b1
                         #b0)))
      (a!153 (concat a!152
                     (ite (= #x2f ((_ extract 63 56) mem_c0000f92_181_112))
                          #b0
                          #b1)))
      (a!172 (ite (= #x00 ((_ extract 31 24) mem_c0000fb2_183_112))
                  #x00000000c0000fbc
                  (ite (= #x00 ((_ extract 23 16) mem_c0000fb2_183_112))
                       #x00000000c0000fbd
                       a!171))))
(let ((a!10 (concat a!9
                    (ite (= #x00 ((_ extract 71 64) mem_c0000f92_181_112))
                         #b1
                         #b0)))
      (a!26 (concat a!25
                    (ite (= #x00 ((_ extract 79 72) mem_c0000f92_181_112))
                         #b1
                         #b0)))
      (a!41 (concat a!40
                    (ite (= #x00 ((_ extract 87 80) mem_c0000f92_181_112))
                         #b1
                         #b0)))
      (a!56 (concat a!55
                    (ite (= #x00 ((_ extract 95 88) mem_c0000f92_181_112))
                         #b1
                         #b0)))
      (a!69 (concat a!68
                    (ite (= #x00 ((_ extract 103 96) mem_c0000f92_181_112))
                         #b1
                         #b0)))
      (a!81 (concat a!80
                    (ite (= #x00 ((_ extract 111 104) mem_c0000f92_181_112))
                         #b1
                         #b0)))
      (a!93 (bvadd #b11111111111
                   (concat (concat a!92 a!16) (ite (= #x00 a!1) #b1 #b0))))
      (a!103 (bvxor ((_ extract 9 9) a!102)
                    (ite (= #x00 ((_ extract 55 48) mem_c0000f92_181_112))
                         #b1
                         #b0)))
      (a!154 (concat a!153
                     (ite (= #x2f ((_ extract 71 64) mem_c0000f92_181_112))
                          #b0
                          #b1)))
      (a!173 (ite (= #x00 ((_ extract 47 40) mem_c0000fb2_183_112))
                  #x00000000c0000fba
                  (ite (= #x00 ((_ extract 39 32) mem_c0000fb2_183_112))
                       #x00000000c0000fbb
                       a!172))))
(let ((a!11 (concat a!10
                    (ite (= #x00 ((_ extract 79 72) mem_c0000f92_181_112))
                         #b1
                         #b0)))
      (a!27 (concat a!26
                    (ite (= #x00 ((_ extract 87 80) mem_c0000f92_181_112))
                         #b1
                         #b0)))
      (a!42 (concat a!41
                    (ite (= #x00 ((_ extract 95 88) mem_c0000f92_181_112))
                         #b1
                         #b0)))
      (a!57 (concat a!56
                    (ite (= #x00 ((_ extract 103 96) mem_c0000f92_181_112))
                         #b1
                         #b0)))
      (a!70 (concat a!69
                    (ite (= #x00 ((_ extract 111 104) mem_c0000f92_181_112))
                         #b1
                         #b0)))
      (a!82 (bvadd #xfff (concat (concat a!81 a!16) (ite (= #x00 a!1) #b1 #b0))))
      (a!94 (bvxor ((_ extract 10 10) a!93)
                   (ite (= #x00 ((_ extract 47 40) mem_c0000f92_181_112))
                        #b1
                        #b0)))
      (a!155 (concat a!154
                     (ite (= #x2f ((_ extract 79 72) mem_c0000f92_181_112))
                          #b0
                          #b1)))
      (a!174 (ite (= #x00 ((_ extract 63 56) mem_c0000fb2_183_112))
                  #x00000000c0000fb8
                  (ite (= #x00 ((_ extract 55 48) mem_c0000fb2_183_112))
                       #x00000000c0000fb9
                       a!173))))
(let ((a!12 (concat a!11
                    (ite (= #x00 ((_ extract 87 80) mem_c0000f92_181_112))
                         #b1
                         #b0)))
      (a!28 (concat a!27
                    (ite (= #x00 ((_ extract 95 88) mem_c0000f92_181_112))
                         #b1
                         #b0)))
      (a!43 (concat a!42
                    (ite (= #x00 ((_ extract 103 96) mem_c0000f92_181_112))
                         #b1
                         #b0)))
      (a!58 (concat a!57
                    (ite (= #x00 ((_ extract 111 104) mem_c0000f92_181_112))
                         #b1
                         #b0)))
      (a!71 (bvadd #b1111111111111
                   (concat (concat a!70 a!16) (ite (= #x00 a!1) #b1 #b0))))
      (a!83 (bvxor ((_ extract 11 11) a!82)
                   (ite (= #x00 ((_ extract 39 32) mem_c0000f92_181_112))
                        #b1
                        #b0)))
      (a!156 (concat a!155
                     (ite (= #x2f ((_ extract 87 80) mem_c0000f92_181_112))
                          #b0
                          #b1)))
      (a!175 (ite (= #x00 ((_ extract 79 72) mem_c0000fb2_183_112))
                  #x00000000c0000fb6
                  (ite (= #x00 ((_ extract 71 64) mem_c0000fb2_183_112))
                       #x00000000c0000fb7
                       a!174))))
(let ((a!13 (concat a!12
                    (ite (= #x00 ((_ extract 95 88) mem_c0000f92_181_112))
                         #b1
                         #b0)))
      (a!29 (concat a!28
                    (ite (= #x00 ((_ extract 103 96) mem_c0000f92_181_112))
                         #b1
                         #b0)))
      (a!44 (concat a!43
                    (ite (= #x00 ((_ extract 111 104) mem_c0000f92_181_112))
                         #b1
                         #b0)))
      (a!59 (bvadd #b11111111111111
                   (concat (concat a!58 a!16) (ite (= #x00 a!1) #b1 #b0))))
      (a!72 (bvxor ((_ extract 12 12) a!71)
                   (ite (= #x00 ((_ extract 31 24) mem_c0000f92_181_112))
                        #b1
                        #b0)))
      (a!157 (concat a!156
                     (ite (= #x2f ((_ extract 95 88) mem_c0000f92_181_112))
                          #b0
                          #b1)))
      (a!176 (ite (= #x00 ((_ extract 95 88) mem_c0000fb2_183_112))
                  #x00000000c0000fb4
                  (ite (= #x00 ((_ extract 87 80) mem_c0000fb2_183_112))
                       #x00000000c0000fb5
                       a!175))))
(let ((a!14 (concat a!13
                    (ite (= #x00 ((_ extract 103 96) mem_c0000f92_181_112))
                         #b1
                         #b0)))
      (a!30 (concat a!29
                    (ite (= #x00 ((_ extract 111 104) mem_c0000f92_181_112))
                         #b1
                         #b0)))
      (a!45 (bvadd #b111111111111111
                   (concat (concat a!44 a!16) (ite (= #x00 a!1) #b1 #b0))))
      (a!60 (bvxor ((_ extract 13 13) a!59)
                   (ite (= #x00 ((_ extract 23 16) mem_c0000f92_181_112))
                        #b1
                        #b0)))
      (a!158 (concat a!157
                     (ite (= #x2f ((_ extract 103 96) mem_c0000f92_181_112))
                          #b0
                          #b1)))
      (a!177 (ite (= #x00 ((_ extract 111 104) mem_c0000fb2_183_112))
                  #x00000000c0000fb2
                  (ite (= #x00 ((_ extract 103 96) mem_c0000fb2_183_112))
                       #x00000000c0000fb3
                       a!176))))
(let ((a!15 (concat a!14
                    (ite (= #x00 ((_ extract 111 104) mem_c0000f92_181_112))
                         #b1
                         #b0)))
      (a!31 (bvadd #xffff
                   (concat (concat a!30 a!16) (ite (= #x00 a!1) #b1 #b0))))
      (a!46 (bvxor ((_ extract 14 14) a!45)
                   (ite (= #x00 ((_ extract 15 8) mem_c0000f92_181_112))
                        #b1
                        #b0)))
      (a!159 (concat a!158
                     (ite (= #x2f ((_ extract 111 104) mem_c0000f92_181_112))
                          #b0
                          #b1)))
      (a!178 (ite (= #x00
                     (ite (= #x0000000000000001 strlen_73_64)
                          #x00
                          ((_ extract 7 0) mem_c0000fb0_82_16)))
                  #x00000000c0000fb1
                  a!177)))
(let ((a!17 (bvadd #xffffffffffffffff
                   (concat (concat a!15 a!16) (ite (= #x00 a!1) #b1 #b0))))
      (a!32 (bvxor ((_ extract 15 15) a!31)
                   (ite (= #x00 ((_ extract 7 0) mem_c0000f92_181_112)) #b1 #b0)))
      (a!179 (ite (= #x00 ((_ extract 15 8) mem_c0000fa2_182_112))
                  #x00000000c0000fae
                  (ite (= #x00 ((_ extract 7 0) mem_c0000fa2_182_112))
                       #x00000000c0000faf
                       (ite a!163 #x00000000c0000fb0 a!178)))))
(let ((a!47 (concat (concat (bvnot ((_ extract 63 16) a!17)) (bvnot a!32))
                    (bvnot a!46)))
      (a!180 (ite (= #x00 ((_ extract 31 24) mem_c0000fa2_182_112))
                  #x00000000c0000fac
                  (ite (= #x00 ((_ extract 23 16) mem_c0000fa2_182_112))
                       #x00000000c0000fad
                       a!179))))
(let ((a!84 (concat (concat (concat a!47 (bvnot a!60)) (bvnot a!72))
                    (bvnot a!83)))
      (a!181 (ite (= #x00 ((_ extract 47 40) mem_c0000fa2_182_112))
                  #x00000000c0000faa
                  (ite (= #x00 ((_ extract 39 32) mem_c0000fa2_182_112))
                       #x00000000c0000fab
                       a!180))))
(let ((a!112 (concat (concat (concat a!84 (bvnot a!94)) (bvnot a!103))
                     (bvnot a!111)))
      (a!182 (ite (= #x00 ((_ extract 63 56) mem_c0000fa2_182_112))
                  #x00000000c0000fa8
                  (ite (= #x00 ((_ extract 55 48) mem_c0000fa2_182_112))
                       #x00000000c0000fa9
                       a!181))))
(let ((a!131 (concat (concat (concat a!112 (bvnot a!119)) (bvnot a!125))
                     (bvnot a!130)))
      (a!183 (ite (= #x00 ((_ extract 79 72) mem_c0000fa2_182_112))
                  #x00000000c0000fa6
                  (ite (= #x00 ((_ extract 71 64) mem_c0000fa2_182_112))
                       #x00000000c0000fa7
                       a!182))))
(let ((a!142 (concat (concat (concat a!131 (bvnot a!135)) (bvnot a!138))
                     (bvnot a!141)))
      (a!184 (ite (= #x00 ((_ extract 95 88) mem_c0000fa2_182_112))
                  #x00000000c0000fa4
                  (ite (= #x00 ((_ extract 87 80) mem_c0000fa2_182_112))
                       #x00000000c0000fa5
                       a!183))))
(let ((a!144 (concat a!142 (bvnot (bvxor ((_ extract 1 1) a!143) a!16))))
      (a!185 (ite (= #x00 ((_ extract 111 104) mem_c0000fa2_182_112))
                  #x00000000c0000fa2
                  (ite (= #x00 ((_ extract 103 96) mem_c0000fa2_182_112))
                       #x00000000c0000fa3
                       a!184))))
(let ((a!161 (bvnot (bvor (concat a!144 (bvnot a!145))
                          (concat (concat a!159 a!160) #b1))))
      (a!186 (ite (= #x00
                     (ite (= #x0000000000000001 strlen_50_64)
                          #x00
                          ((_ extract 7 0) mem_c0000fa0_55_16)))
                  #x00000000c0000fa1
                  a!185)))
(let ((a!187 (ite (= #x00 ((_ extract 15 8) mem_c0000f92_181_112))
                  #x00000000c0000f9e
                  (ite (= #x00 ((_ extract 7 0) mem_c0000f92_181_112))
                       #x00000000c0000f9f
                       (ite (= #x00 a!162) #x00000000c0000fa0 a!186)))))
(let ((a!188 (ite (= #x00 ((_ extract 31 24) mem_c0000f92_181_112))
                  #x00000000c0000f9c
                  (ite (= #x00 ((_ extract 23 16) mem_c0000f92_181_112))
                       #x00000000c0000f9d
                       a!187))))
(let ((a!189 (ite (= #x00 ((_ extract 47 40) mem_c0000f92_181_112))
                  #x00000000c0000f9a
                  (ite (= #x00 ((_ extract 39 32) mem_c0000f92_181_112))
                       #x00000000c0000f9b
                       a!188))))
(let ((a!190 (ite (= #x00 ((_ extract 63 56) mem_c0000f92_181_112))
                  #x00000000c0000f98
                  (ite (= #x00 ((_ extract 55 48) mem_c0000f92_181_112))
                       #x00000000c0000f99
                       a!189))))
(let ((a!191 (ite (= #x00 ((_ extract 79 72) mem_c0000f92_181_112))
                  #x00000000c0000f96
                  (ite (= #x00 ((_ extract 71 64) mem_c0000f92_181_112))
                       #x00000000c0000f97
                       a!190))))
(let ((a!192 (ite (= #x00 ((_ extract 95 88) mem_c0000f92_181_112))
                  #x00000000c0000f94
                  (ite (= #x00 ((_ extract 87 80) mem_c0000f92_181_112))
                       #x00000000c0000f95
                       a!191))))
(let ((a!193 (ite (= #x00 ((_ extract 111 104) mem_c0000f92_181_112))
                  #x00000000c0000f92
                  (ite (= #x00 ((_ extract 103 96) mem_c0000f92_181_112))
                       #x00000000c0000f93
                       a!192))))
(let ((a!194 (ite (= #x00
                     (ite (= #x0000000000000001 strlen_43_64)
                          #x00
                          ((_ extract 7 0) mem_c0000f90_44_16)))
                  #x00000000c0000f91
                  a!193)))
  (and (= #b00000000000000000000000000000000000000000000000000000000000000
          ((_ extract 63 2) (bvadd #x0000000000000001 strlen_43_64)))
       (= (ite (= #x00 args_0_8) #x07fffffffffeffd0 #x07fffffffffeffd1)
          (bvadd #x07fffffffffeffd0 strlen_43_64))
       (bvule (bvadd #b01 ((_ extract 1 0) strlen_43_64)) #b10)
       (bvule strlen_43_64 #xfffffffffffffffe)
       (not (= #x2f a!1))
       (= #x0000000000000000 a!161)
       (not (= #x2d args_1_8))
       (= (ite (= #x00 args_1_8) #x07fffffffffeffd2 #x07fffffffffeffd3)
          (bvadd #x07fffffffffeffd2 strlen_50_64))
       (= #b00000000000000000000000000000000000000000000000000000000000000
          ((_ extract 63 2) (bvadd #x0000000000000001 strlen_50_64)))
       (bvule (bvadd #b01 ((_ extract 1 0) strlen_50_64)) #b10)
       (bvule strlen_50_64 #xfffffffffffffffe)
       (not (= #x2d a!162))
       (= (ite (= #x00 args_3_8) #x07fffffffffeffd6 #x07fffffffffeffd7)
          (bvadd #x07fffffffffeffd6 strlen_108_64))
       (not (= #x2d args_3_8))
       (= #b00000000000000000000000000000000000000000000000000000000000000
          ((_ extract 63 2) (bvadd #x0000000000000001 strlen_108_64)))
       (bvule (bvadd #b01 ((_ extract 1 0) strlen_108_64)) #b10)
       (bvule strlen_108_64 #xfffffffffffffffe)
       (= (ite (= #x00 args_2_8) #x07fffffffffeffd4 #x07fffffffffeffd5)
          (bvadd #x07fffffffffeffd4 strlen_73_64))
       (not (= #x2d args_2_8))
       (= #b00000000000000000000000000000000000000000000000000000000000000
          ((_ extract 63 2) (bvadd #x0000000000000001 strlen_73_64)))
       (bvule (bvadd #b01 ((_ extract 1 0) strlen_73_64)) #b10)
       (bvule strlen_73_64 #xfffffffffffffffe)
       (= (ite (= #x00 a!1) #x00000000c0000f90 a!194)
          (bvadd #x00000000c0000f90 strlen_289_64))
       (= #b000000000000000000000000000000000000000000000000000000000000000
          ((_ extract 63 1) strlen_289_64))
       (= (ite (= #x00 a!1) #x07fffffffffe6bbd #x07fffffffffe6bbe)
          (bvadd #x07fffffffffe6bb0 strlen_312_64))
       (= (ite (= #x00 a!1) #x07fffffffffe6bbd #x07fffffffffe6bbe)
          (bvadd #x07fffffffffe6bb0 strlen_705_64))
       (or (= #x00 ((_ extract 47 40) mem_c0000f92_181_112))
           (= #x00 ((_ extract 7 0) mem_c0000f90_44_16))
           (= #x0000000000000001 strlen_43_64)
           (= #x00 a!1)
           (= #x00 ((_ extract 103 96) mem_c0000f92_181_112))
           (= #x00 ((_ extract 111 104) mem_c0000f92_181_112))
           (= #x00 ((_ extract 55 48) mem_c0000f92_181_112))
           (= #x00 ((_ extract 15 8) mem_c0000f92_181_112))
           (= #x00 ((_ extract 39 32) mem_c0000f92_181_112))
           (= #x00 ((_ extract 95 88) mem_c0000f92_181_112))
           (= #x00 ((_ extract 79 72) mem_c0000f92_181_112))
           (= #x00 ((_ extract 87 80) mem_c0000f92_181_112))
           (= #x00 ((_ extract 23 16) mem_c0000f92_181_112))
           (= #x00 ((_ extract 63 56) mem_c0000f92_181_112))
           (= #x00 ((_ extract 31 24) mem_c0000f92_181_112))
           (= #x00 ((_ extract 7 0) mem_c0000f92_181_112))
           (= #x00 ((_ extract 71 64) mem_c0000f92_181_112)))))))))))))))))))))))))))))))))))
(define-fun goal () (_ BitVec 64) (bvadd strlen_705_64 #x0000000000000001)) 
(maximize goal)
(check-sat)